
     Program PWSCF v.7.5 starts on 22Jan2026 at 16: 1: 7 

     This program is part of the open-source Quantum ESPRESSO suite
     for quantum simulation of materials; please cite
         "P. Giannozzi et al., J. Phys.:Condens. Matter 21 395502 (2009);
         "P. Giannozzi et al., J. Phys.:Condens. Matter 29 465901 (2017);
         "P. Giannozzi et al., J. Chem. Phys. 152 154105 (2020);
          URL http://www.quantum-espresso.org", 
     in publications or presentations arising from this work. More details at
     http://www.quantum-espresso.org/quote

     Parallel version (MPI & OpenMP), running on       8 processor cores
     Number of MPI processes:                 1
     Threads/MPI process:                     8

     MPI processes distributed on     1 nodes
     721101 MiB available memory on the printing compute node when the environment starts
 
     Reading input from ausurf.in
Warning: card &CELL ignored
Warning: card   CELL_DYNAMICS = 'NONE', ignored

     Current dimensions of program PWSCF are:
     Max number of different atomic species (ntypx) = 10
     Max number of k-points (npk) =  40000
     Max angular momentum in pseudopotentials (lmaxx) =  4
 
     Subspace diagonalization in iterative solution of the eigenvalue problem:
     a serial algorithm will be used

 
     G-vector sticks info
     --------------------
     sticks:   dense  smooth     PW     G-vecs:    dense   smooth      PW
     Sum       11837    5915   1537              2158381   763307  100747
 
     Using Slab Decomposition
 

     Title: 
      DEISA pw benchmark                                                        


     bravais-lattice index     =            8
     lattice parameter (alat)  =      38.7583  a.u.
     unit-cell volume          =   45191.4962 (a.u.)^3
     number of atoms/cell      =          112
     number of atomic types    =            1
     number of electrons       =      1232.00
     number of Kohn-Sham states=          800
     kinetic-energy cutoff     =      25.0000  Ry
     charge density cutoff     =     200.0000  Ry
     scf convergence threshold =      1.0E-06
     mixing beta               =       0.7000
     number of iterations used =            8  plain     mixing
     Exchange-correlation=  SLA  PW   PBE  PBE
                           (   1   4   3   4   0   0   0)

     GPU acceleration is ACTIVE.  1 visible GPUs per MPI rank


     celldm(1)=  38.758300  celldm(2)=   0.494393  celldm(3)=   1.569966
     celldm(4)=   0.000000  celldm(5)=   0.000000  celldm(6)=   0.000000

     crystal axes: (cart. coord. in units of alat)
               a(1) = (   1.000000   0.000000   0.000000 )  
               a(2) = (   0.000000   0.494393   0.000000 )  
               a(3) = (   0.000000   0.000000   1.569966 )  

     reciprocal axes: (cart. coord. in units 2 pi/alat)
               b(1) = (  1.000000  0.000000  0.000000 )  
               b(2) = (  0.000000  2.022682  0.000000 )  
               b(3) = (  0.000000  0.000000  0.636956 )  


     PseudoPot. # 1 for Au read from file:
     ./Au.pbe-nd-van.UPF
     MD5 check sum: deb5c07af10777505a79e28f5b4b4115
     Pseudo is Ultrasoft + core correction, Zval = 11.0
     Generated by new atomic code, or converted to UPF format
     Using radial grid of  985 points,  3 beta functions with: 
                l(1) =   1
                l(2) =   2
                l(3) =   2
     Q(r) pseudized with  8 coefficients,  rinner =    1.100   1.100   1.100
                                                       1.100   1.100

     atomic species   valence    mass     pseudopotential
     AU               11.00   196.96000     Au( 1.00)

     No symmetry found



   Cartesian axes

     site n.     atom                  positions (alat units)
         1        AU     tau(   1) = (   1.4278394   1.9784974   0.3497317  )
         2        AU     tau(   2) = (   1.4278394   1.7313986   0.3497317  )
         3        AU     tau(   3) = (   1.5706478   1.9784974   0.3497317  )
         4        AU     tau(   4) = (   1.5706478   1.7313986   0.3497317  )
         5        AU     tau(   5) = (   1.7134072   1.9784974   0.3497317  )
         6        AU     tau(   6) = (   1.7134072   1.7313986   0.3497317  )
         7        AU     tau(   7) = (   1.8562156   1.9784974   0.3497317  )
         8        AU     tau(   8) = (   1.8562156   1.7313986   0.3497317  )
         9        AU     tau(   9) = (   1.9989753   1.9784974   0.3497317  )
        10        AU     tau(  10) = (   1.9989753   1.7313986   0.3497317  )
        11        AU     tau(  11) = (   2.1417836   1.9784974   0.3497317  )
        12        AU     tau(  12) = (   2.1417836   1.7313986   0.3497317  )
        13        AU     tau(  13) = (   2.2845431   1.9784974   0.3497317  )
        14        AU     tau(  14) = (   2.2845431   1.7313986   0.3497317  )
        15        AU     tau(  15) = (   1.4278394   2.0609450   0.2331545  )
        16        AU     tau(  16) = (   1.4278394   1.8138461   0.2331545  )
        17        AU     tau(  17) = (   1.5706478   2.0609450   0.2331545  )
        18        AU     tau(  18) = (   1.5706478   1.8138461   0.2331545  )
        19        AU     tau(  19) = (   1.7134072   2.0609450   0.2331545  )
        20        AU     tau(  20) = (   1.7134072   1.8138461   0.2331545  )
        21        AU     tau(  21) = (   1.8562156   2.0609450   0.2331545  )
        22        AU     tau(  22) = (   1.8562156   1.8138461   0.2331545  )
        23        AU     tau(  23) = (   1.9989753   2.0609450   0.2331545  )
        24        AU     tau(  24) = (   1.9989753   1.8138461   0.2331545  )
        25        AU     tau(  25) = (   2.1417836   2.0609450   0.2331545  )
        26        AU     tau(  26) = (   2.1417836   1.8138461   0.2331545  )
        27        AU     tau(  27) = (   2.2845431   2.0609450   0.2331545  )
        28        AU     tau(  28) = (   2.2845431   1.8138461   0.2331545  )
        29        AU     tau(  29) = (   1.4992193   2.1021445   0.3497317  )
        30        AU     tau(  30) = (   1.4992193   1.8550455   0.3497317  )
        31        AU     tau(  31) = (   1.6420276   2.1021445   0.3497317  )
        32        AU     tau(  32) = (   1.6420276   1.8550455   0.3497317  )
        33        AU     tau(  33) = (   1.7847871   2.1021445   0.3497317  )
        34        AU     tau(  34) = (   1.7847871   1.8550455   0.3497317  )
        35        AU     tau(  35) = (   1.9275954   2.1021445   0.3497317  )
        36        AU     tau(  36) = (   1.9275954   1.8550455   0.3497317  )
        37        AU     tau(  37) = (   2.0704038   2.1021445   0.3497317  )
        38        AU     tau(  38) = (   2.0704038   1.8550455   0.3497317  )
        39        AU     tau(  39) = (   2.2131632   2.1021445   0.3497317  )
        40        AU     tau(  40) = (   2.2131632   1.8550455   0.3497317  )
        41        AU     tau(  41) = (   2.3559716   2.1021445   0.3497317  )
        42        AU     tau(  42) = (   2.3559716   1.8550455   0.3497317  )
        43        AU     tau(  43) = (   1.4992193   1.6901992   0.2331545  )
        44        AU     tau(  44) = (   1.4992193   1.9374930   0.2331545  )
        45        AU     tau(  45) = (   1.6420276   1.6901992   0.2331545  )
        46        AU     tau(  46) = (   1.6420276   1.9374930   0.2331545  )
        47        AU     tau(  47) = (   1.7847871   1.6901992   0.2331545  )
        48        AU     tau(  48) = (   1.7847871   1.9374930   0.2331545  )
        49        AU     tau(  49) = (   1.9275954   1.6901992   0.2331545  )
        50        AU     tau(  50) = (   1.9275954   1.9374930   0.2331545  )
        51        AU     tau(  51) = (   2.0704038   1.6901992   0.2331545  )
        52        AU     tau(  52) = (   2.0704038   1.9374930   0.2331545  )
        53        AU     tau(  53) = (   2.2131632   1.6901992   0.2331545  )
        54        AU     tau(  54) = (   2.2131632   1.9374930   0.2331545  )
        55        AU     tau(  55) = (   2.3559716   1.6901992   0.2331545  )
        56        AU     tau(  56) = (   2.3559716   1.9374930   0.2331545  )
        57        AU     tau(  57) = (   1.4278394   1.9784974   0.0000000  )
        58        AU     tau(  58) = (   1.4278394   1.7313986   0.0000000  )
        59        AU     tau(  59) = (   1.5706478   1.9784974   0.0000000  )
        60        AU     tau(  60) = (   1.5706478   1.7313986   0.0000000  )
        61        AU     tau(  61) = (   1.7134072   1.9784974   0.0000000  )
        62        AU     tau(  62) = (   1.7134072   1.7313986   0.0000000  )
        63        AU     tau(  63) = (   1.8562156   1.9784974   0.0000000  )
        64        AU     tau(  64) = (   1.8562156   1.7313986   0.0000000  )
        65        AU     tau(  65) = (   1.9989753   1.9784974   0.0000000  )
        66        AU     tau(  66) = (   1.9989753   1.7313986   0.0000000  )
        67        AU     tau(  67) = (   2.1417836   1.9784974   0.0000000  )
        68        AU     tau(  68) = (   2.1417836   1.7313986   0.0000000  )
        69        AU     tau(  69) = (   2.2845431   1.9784974   0.0000000  )
        70        AU     tau(  70) = (   2.2845431   1.7313986   0.0000000  )
        71        AU     tau(  71) = (   1.4992193   2.0196968   0.1165772  )
        72        AU     tau(  72) = (   1.4992193   1.7725979   0.1165772  )
        73        AU     tau(  73) = (   1.6420276   2.0196968   0.1165772  )
        74        AU     tau(  74) = (   1.6420276   1.7725979   0.1165772  )
        75        AU     tau(  75) = (   1.7847871   2.0196968   0.1165772  )
        76        AU     tau(  76) = (   1.7847871   1.7725979   0.1165772  )
        77        AU     tau(  77) = (   1.9275954   2.0196968   0.1165772  )
        78        AU     tau(  78) = (   1.9275954   1.7725979   0.1165772  )
        79        AU     tau(  79) = (   2.0704038   2.0196968   0.1165772  )
        80        AU     tau(  80) = (   2.0704038   1.7725979   0.1165772  )
        81        AU     tau(  81) = (   2.2131632   2.0196968   0.1165772  )
        82        AU     tau(  82) = (   2.2131632   1.7725979   0.1165772  )
        83        AU     tau(  83) = (   2.3559716   2.0196968   0.1165772  )
        84        AU     tau(  84) = (   2.3559716   1.7725979   0.1165772  )
        85        AU     tau(  85) = (   1.4278394   2.1433437   0.1165772  )
        86        AU     tau(  86) = (   1.4278394   1.8962937   0.1165772  )
        87        AU     tau(  87) = (   1.5706478   2.1433437   0.1165772  )
        88        AU     tau(  88) = (   1.5706478   1.8962937   0.1165772  )
        89        AU     tau(  89) = (   1.7134072   2.1433437   0.1165772  )
        90        AU     tau(  90) = (   1.7134072   1.8962937   0.1165772  )
        91        AU     tau(  91) = (   1.8562156   2.1433437   0.1165772  )
        92        AU     tau(  92) = (   1.8562156   1.8962937   0.1165772  )
        93        AU     tau(  93) = (   1.9989753   2.1433437   0.1165772  )
        94        AU     tau(  94) = (   1.9989753   1.8962937   0.1165772  )
        95        AU     tau(  95) = (   2.1417836   2.1433437   0.1165772  )
        96        AU     tau(  96) = (   2.1417836   1.8962937   0.1165772  )
        97        AU     tau(  97) = (   2.2845431   2.1433437   0.1165772  )
        98        AU     tau(  98) = (   2.2845431   1.8962937   0.1165772  )
        99        AU     tau(  99) = (   1.4992193   2.1021445   0.0000000  )
       100        AU     tau( 100) = (   1.4992193   1.8550455   0.0000000  )
       101        AU     tau( 101) = (   1.6420276   2.1021445   0.0000000  )
       102        AU     tau( 102) = (   1.6420276   1.8550455   0.0000000  )
       103        AU     tau( 103) = (   1.7847871   2.1021445   0.0000000  )
       104        AU     tau( 104) = (   1.7847871   1.8550455   0.0000000  )
       105        AU     tau( 105) = (   1.9275954   2.1021445   0.0000000  )
       106        AU     tau( 106) = (   1.9275954   1.8550455   0.0000000  )
       107        AU     tau( 107) = (   2.0704038   2.1021445   0.0000000  )
       108        AU     tau( 108) = (   2.0704038   1.8550455   0.0000000  )
       109        AU     tau( 109) = (   2.2131632   2.1021445   0.0000000  )
       110        AU     tau( 110) = (   2.2131632   1.8550455   0.0000000  )
       111        AU     tau( 111) = (   2.3559716   2.1021445   0.0000000  )
       112        AU     tau( 112) = (   2.3559716   1.8550455   0.0000000  )

     number of k points=     2  Marzari-Vanderbilt smearing, width (Ry)=  0.0500
                       cart. coord. in units 2pi/alat
        k(    1) = (   0.2500000   0.5056706   0.0000000), wk =   1.0000000
        k(    2) = (  -0.2500000   0.5056706   0.0000000), wk =   1.0000000

     Dense  grid:  2158381 G-vectors     FFT dimensions: ( 180,  90, 288)

     Smooth grid:   763307 G-vectors     FFT dimensions: ( 125,  64, 200)

     Estimated max dynamical RAM per process >      20.83 GB

     Initial potential from superposition of free atoms

     starting charge    1230.6995, renormalised to    1232.0000

     negative rho (up, down):  3.043E+00 0.000E+00
     Starting wfcs are 1008 randomized atomic wfcs

     total cpu time spent up to now is      220.1 secs

     per-process dynamical memory:  4680.4 Mb

     Self-consistent Calculation

     iteration #  1     ecut=    25.00 Ry     beta= 0.70
     Davidson diagonalization with overlap
     ethr =  1.00E-02,  avg # of iterations =  5.0

     Threshold (ethr) on eigenvalues was too large:
     Diagonalizing with lowered threshold

     Davidson diagonalization with overlap
     ethr =  4.37E-04,  avg # of iterations = 18.5

     negative rho (up, down):  2.992E+00 0.000E+00

     total cpu time spent up to now is     1439.3 secs

     total energy              =  -11423.49166498 Ry
     estimated scf accuracy    <       6.31388843 Ry

     iteration #  2     ecut=    25.00 Ry     beta= 0.70
     Davidson diagonalization with overlap
     ethr =  5.12E-04,  avg # of iterations = 15.5

     negative rho (up, down):  2.993E+00 0.000E+00

     total cpu time spent up to now is     2651.4 secs

     total energy              =  -11408.39041362 Ry
     estimated scf accuracy    <     196.07579755 Ry

     iteration #  3     ecut=    25.00 Ry     beta= 0.70
     Davidson diagonalization with overlap
     ethr =  5.12E-04,  avg # of iterations = 11.0

     negative rho (up, down):  3.038E+00 0.000E+00

     total cpu time spent up to now is     3664.2 secs

     total energy              =  -11426.41125097 Ry
     estimated scf accuracy    <       5.03256435 Ry

     iteration #  4     ecut=    25.00 Ry     beta= 0.70
     Davidson diagonalization with overlap
     ethr =  4.08E-04,  avg # of iterations =  2.5

     negative rho (up, down):  3.046E+00 0.000E+00

     total cpu time spent up to now is     4182.7 secs

     total energy              =  -11426.62425424 Ry
     estimated scf accuracy    <       4.24858302 Ry

     iteration #  5     ecut=    25.00 Ry     beta= 0.70
     Davidson diagonalization with overlap
     ethr =  3.45E-04,  avg # of iterations =  2.0

     negative rho (up, down):  3.061E+00 0.000E+00

     total cpu time spent up to now is     4694.9 secs

     total energy              =  -11426.86754901 Ry
     estimated scf accuracy    <       4.88076877 Ry

     iteration #  6     ecut=    25.00 Ry     beta= 0.70
     Davidson diagonalization with overlap
     ethr =  3.45E-04,  avg # of iterations =  1.0

     negative rho (up, down):  3.070E+00 0.000E+00

     total cpu time spent up to now is     5118.8 secs

     total energy              =  -11427.08083269 Ry
     estimated scf accuracy    <       0.09015350 Ry

     iteration #  7     ecut=    25.00 Ry     beta= 0.70
     Davidson diagonalization with overlap
     c_bands:  1 eigenvalues not converged
     c_bands:  2 eigenvalues not converged
     ethr =  7.32E-06,  avg # of iterations = 20.0

     negative rho (up, down):  3.079E+00 0.000E+00

     total cpu time spent up to now is     5921.5 secs

     total energy              =  -11427.07368631 Ry
     estimated scf accuracy    <       0.20413275 Ry

     iteration #  8     ecut=    25.00 Ry     beta= 0.70
     Davidson diagonalization with overlap
     ethr =  7.32E-06,  avg # of iterations = 14.0

     negative rho (up, down):  3.080E+00 0.000E+00

     total cpu time spent up to now is     6505.8 secs

     total energy              =  -11427.09061149 Ry
     estimated scf accuracy    <       0.04780583 Ry

     iteration #  9     ecut=    25.00 Ry     beta= 0.70
     Davidson diagonalization with overlap
     ethr =  3.88E-06,  avg # of iterations =  6.5

     negative rho (up, down):  3.082E+00 0.000E+00

     total cpu time spent up to now is     7037.1 secs

     total energy              =  -11427.09286240 Ry
     estimated scf accuracy    <       0.02085635 Ry

     iteration # 10     ecut=    25.00 Ry     beta= 0.70
     Davidson diagonalization with overlap
     c_bands:  1 eigenvalues not converged
     ethr =  1.69E-06,  avg # of iterations = 12.5

     negative rho (up, down):  3.083E+00 0.000E+00

     total cpu time spent up to now is     7579.9 secs

     total energy              =  -11427.09344788 Ry
     estimated scf accuracy    <       0.00464538 Ry

     iteration # 11     ecut=    25.00 Ry     beta= 0.70
     Davidson diagonalization with overlap
     ethr =  3.77E-07,  avg # of iterations =  5.5

     negative rho (up, down):  3.083E+00 0.000E+00

     total cpu time spent up to now is     8097.3 secs

     total energy              =  -11427.09369082 Ry
     estimated scf accuracy    <       0.00247145 Ry

     iteration # 12     ecut=    25.00 Ry     beta= 0.70
     Davidson diagonalization with overlap
     ethr =  2.01E-07,  avg # of iterations =  1.5

     negative rho (up, down):  3.083E+00 0.000E+00

     total cpu time spent up to now is     8563.0 secs

     total energy              =  -11427.09380555 Ry
     estimated scf accuracy    <       0.00262102 Ry

     iteration # 13     ecut=    25.00 Ry     beta= 0.70
     Davidson diagonalization with overlap
     ethr =  2.01E-07,  avg # of iterations =  1.0

     negative rho (up, down):  3.084E+00 0.000E+00

     total cpu time spent up to now is     8986.8 secs

     total energy              =  -11427.09380848 Ry
     estimated scf accuracy    <       0.00326278 Ry

     iteration # 14     ecut=    25.00 Ry     beta= 0.70
     Davidson diagonalization with overlap
     ethr =  2.01E-07,  avg # of iterations =  1.0

     negative rho (up, down):  3.084E+00 0.000E+00

     total cpu time spent up to now is     9410.6 secs

     total energy              =  -11427.09397261 Ry
     estimated scf accuracy    <       0.00028017 Ry

     iteration # 15     ecut=    25.00 Ry     beta= 0.70
     Davidson diagonalization with overlap
     ethr =  2.27E-08,  avg # of iterations =  2.0

     negative rho (up, down):  3.084E+00 0.000E+00

     total cpu time spent up to now is     9919.3 secs

     total energy              =  -11427.09396223 Ry
     estimated scf accuracy    <       0.00115807 Ry

     iteration # 16     ecut=    25.00 Ry     beta= 0.70
     Davidson diagonalization with overlap
     ethr =  2.27E-08,  avg # of iterations =  1.0

     negative rho (up, down):  3.084E+00 0.000E+00

     total cpu time spent up to now is    10343.1 secs

     total energy              =  -11427.09401617 Ry
     estimated scf accuracy    <       0.00004971 Ry

     iteration # 17     ecut=    25.00 Ry     beta= 0.70
     Davidson diagonalization with overlap
     ethr =  4.03E-09,  avg # of iterations =  2.0

     negative rho (up, down):  3.085E+00 0.000E+00

     total cpu time spent up to now is    10852.0 secs

     total energy              =  -11427.09401988 Ry
     estimated scf accuracy    <       0.00001491 Ry

     iteration # 18     ecut=    25.00 Ry     beta= 0.70
     Davidson diagonalization with overlap
     ethr =  1.21E-09,  avg # of iterations =  2.0

     negative rho (up, down):  3.085E+00 0.000E+00

     total cpu time spent up to now is    11363.7 secs

     total energy              =  -11427.09402134 Ry
     estimated scf accuracy    <       0.00000582 Ry

     iteration # 19     ecut=    25.00 Ry     beta= 0.70
     Davidson diagonalization with overlap
     ethr =  4.73E-10,  avg # of iterations =  2.0

     negative rho (up, down):  3.085E+00 0.000E+00

     total cpu time spent up to now is    11872.6 secs

     total energy              =  -11427.09402097 Ry
     estimated scf accuracy    <       0.00002044 Ry

     iteration # 20     ecut=    25.00 Ry     beta= 0.70
     Davidson diagonalization with overlap
     ethr =  4.73E-10,  avg # of iterations =  1.5

     negative rho (up, down):  3.085E+00 0.000E+00

     total cpu time spent up to now is    12338.3 secs

     total energy              =  -11427.09402194 Ry
     estimated scf accuracy    <       0.00000498 Ry

     iteration # 21     ecut=    25.00 Ry     beta= 0.70
     Davidson diagonalization with overlap
     ethr =  4.04E-10,  avg # of iterations =  1.0

     negative rho (up, down):  3.085E+00 0.000E+00

     total cpu time spent up to now is    12761.8 secs

     End of self-consistent calculation

          k = 0.2500 0.5057 0.0000 ( 95386 PWs)   bands (ev):

    -8.0049  -7.7855  -7.3695  -7.1565  -6.9589  -6.8866  -6.8076  -6.6747
    -6.6109  -6.2901  -6.2195  -6.1891  -6.1051  -6.0374  -5.9303  -5.9280
    -5.8888  -5.8392  -5.8311  -5.8250  -5.7940  -5.7361  -5.7241  -5.6815
    -5.6675  -5.6496  -5.6455  -5.6402  -5.5499  -5.5385  -5.5310  -5.5228
    -5.5165  -5.5073  -5.4893  -5.4813  -5.4630  -5.4596  -5.4283  -5.3752
    -5.3691  -5.3538  -5.3516  -5.3172  -5.3100  -5.2939  -5.2913  -5.2338
    -5.2328  -5.2327  -5.2283  -5.2184  -5.1998  -5.1787  -5.1555  -5.1448
    -5.1299  -5.1245  -5.1158  -5.1142  -5.1106  -5.1093  -5.0881  -5.0676
    -5.0648  -5.0571  -5.0560  -5.0489  -5.0408  -5.0377  -5.0305  -4.9878
    -4.9821  -4.9670  -4.9638  -4.9482  -4.9343  -4.9324  -4.9289  -4.9269
    -4.9177  -4.9160  -4.9070  -4.9040  -4.8858  -4.8854  -4.8818  -4.8719
    -4.8719  -4.8622  -4.8596  -4.8488  -4.8281  -4.8270  -4.8248  -4.8221
    -4.7419  -4.7393  -4.7377  -4.7368  -4.7329  -4.7256  -4.7211  -4.7209
    -4.7202  -4.7121  -4.6995  -4.6848  -4.6743  -4.6166  -4.6001  -4.5971
    -4.5934  -4.5851  -4.5625  -4.5611  -4.5574  -4.5268  -4.4706  -4.4695
    -4.4509  -4.4138  -4.3980  -4.3952  -4.3935  -4.3932  -4.3917  -4.3854
    -4.3554  -4.3457  -4.3451  -4.3371  -4.3256  -4.3230  -4.3202  -4.3036
    -4.3021  -4.2739  -4.2645  -4.2574  -4.2477  -4.2452  -4.2294  -4.2106
    -4.1938  -4.1679  -4.1562  -4.1551  -4.1546  -4.1531  -4.1483  -4.1395
    -4.1373  -4.1045  -4.0972  -4.0835  -4.0775  -4.0763  -4.0699  -4.0544
    -4.0506  -4.0353  -4.0307  -4.0240  -4.0214  -4.0172  -4.0085  -3.9939
    -3.9868  -3.9707  -3.9586  -3.9275  -3.9140  -3.8986  -3.8931  -3.8896
    -3.8710  -3.8707  -3.8611  -3.8374  -3.8366  -3.8330  -3.8165  -3.8084
    -3.7860  -3.7801  -3.7392  -3.7358  -3.7265  -3.7241  -3.7149  -3.7102
    -3.7009  -3.6853  -3.6807  -3.6712  -3.6589  -3.6405  -3.6192  -3.6192
    -3.6173  -3.6162  -3.6056  -3.6018  -3.5991  -3.5952  -3.5917  -3.5797
    -3.5698  -3.5670  -3.5645  -3.5595  -3.5575  -3.5509  -3.5459  -3.5448
    -3.5435  -3.5342  -3.5236  -3.4923  -3.4823  -3.4563  -3.4540  -3.4429
    -3.4425  -3.4405  -3.4392  -3.4261  -3.4214  -3.4127  -3.4051  -3.3970
    -3.3879  -3.3797  -3.3740  -3.3720  -3.3703  -3.3695  -3.3643  -3.3563
    -3.3525  -3.3374  -3.3356  -3.3269  -3.3261  -3.3244  -3.3200  -3.3171
    -3.3134  -3.3130  -3.3091  -3.3086  -3.2997  -3.2969  -3.2919  -3.2861
    -3.2814  -3.2795  -3.2591  -3.2497  -3.2468  -3.2438  -3.2381  -3.2288
    -3.2197  -3.2189  -3.2142  -3.2102  -3.2022  -3.1998  -3.1890  -3.1805
    -3.1790  -3.1732  -3.1721  -3.1684  -3.1668  -3.1592  -3.1581  -3.1459
    -3.1457  -3.1216  -3.1212  -3.1106  -3.0983  -3.0906  -3.0844  -3.0580
    -3.0413  -3.0400  -3.0345  -3.0333  -3.0262  -3.0239  -3.0231  -3.0181
    -3.0173  -3.0163  -3.0155  -3.0091  -3.0024  -3.0015  -2.9893  -2.9848
    -2.9818  -2.9808  -2.9801  -2.9750  -2.9749  -2.9711  -2.9686  -2.9509
    -2.9151  -2.9131  -2.8901  -2.8758  -2.8742  -2.8624  -2.8597  -2.8493
    -2.8476  -2.8280  -2.8220  -2.8205  -2.7997  -2.7962  -2.7956  -2.7831
    -2.7797  -2.7754  -2.7674  -2.7641  -2.7502  -2.7492  -2.7468  -2.7421
    -2.7233  -2.7225  -2.7207  -2.7180  -2.6628  -2.6543  -2.6462  -2.6367
    -2.6296  -2.6261  -2.6215  -2.5956  -2.5801  -2.5698  -2.5674  -2.5669
    -2.5635  -2.5591  -2.5531  -2.5408  -2.5281  -2.5252  -2.5195  -2.5161
    -2.5090  -2.5072  -2.5011  -2.4929  -2.4899  -2.4863  -2.4804  -2.4793
    -2.4732  -2.4724  -2.4665  -2.4657  -2.4598  -2.4491  -2.4353  -2.4347
    -2.4065  -2.4001  -2.3983  -2.3743  -2.3703  -2.3632  -2.3559  -2.3558
    -2.3487  -2.3453  -2.3356  -2.3324  -2.3153  -2.3004  -2.2928  -2.2719
    -2.2685  -2.2667  -2.2637  -2.2488  -2.2433  -2.2336  -2.2317  -2.2151
    -2.2126  -2.2055  -2.2053  -2.1979  -2.1971  -2.1783  -2.1449  -2.1361
    -2.1304  -2.1058  -2.1024  -2.0848  -2.0675  -2.0485  -2.0475  -2.0442
    -2.0374  -2.0319  -2.0023  -1.9983  -1.9948  -1.9641  -1.9607  -1.9573
    -1.9561  -1.9520  -1.9481  -1.9453  -1.9393  -1.9388  -1.9370  -1.9309
    -1.9299  -1.9276  -1.9171  -1.9122  -1.9078  -1.9020  -1.8647  -1.8557
    -1.8550  -1.8386  -1.8310  -1.8273  -1.8232  -1.8171  -1.8161  -1.8136
    -1.8115  -1.8014  -1.8002  -1.7990  -1.7934  -1.7665  -1.7596  -1.7586
    -1.7575  -1.7483  -1.7432  -1.7425  -1.7366  -1.7365  -1.7266  -1.7239
    -1.7063  -1.7047  -1.6989  -1.6979  -1.6881  -1.6744  -1.6702  -1.6658
    -1.6635  -1.6587  -1.6508  -1.6288  -1.6131  -1.6038  -1.5994  -1.5975
    -1.5792  -1.5760  -1.5755  -1.5740  -1.5602  -1.5448  -1.5044  -1.4992
    -1.4927  -1.4881  -1.4800  -1.4791  -1.4707  -1.4673  -1.4599  -1.4581
    -1.4511  -1.4444  -1.4336  -1.4325  -1.4262  -1.4133  -1.4127  -1.4074
    -1.3997  -1.3817  -1.3718  -1.3685  -1.3630  -1.3580  -1.3454  -1.3396
    -1.3278  -1.3256  -1.3219  -1.3074  -1.3026  -1.2977  -1.2933  -1.2873
    -1.2872  -1.2779  -1.2766  -1.2671  -1.2646  -1.2554  -1.2537  -1.2497
    -1.2417  -1.2397  -1.2280  -1.2276  -1.2200  -1.2193  -1.2192  -1.2189
    -1.2154  -1.2088  -1.2060  -1.1780  -1.1767  -1.1707  -1.1566  -1.1554
    -1.1450  -1.1402  -1.1379  -1.1336  -1.1301  -1.1251  -1.1245  -1.1218
    -1.1189  -1.1076  -1.1060  -1.0985  -1.0874  -1.0829  -1.0800  -1.0781
    -1.0772  -1.0758  -1.0725  -1.0629  -1.0579  -1.0550  -1.0537  -1.0509
    -1.0502  -1.0442  -1.0045  -0.9811  -0.9698  -0.9650  -0.9523  -0.9373
    -0.9359  -0.9293  -0.9246  -0.9208  -0.9161  -0.9078  -0.9003  -0.8820
    -0.8781  -0.8615  -0.8300  -0.8281  -0.8260  -0.7659  -0.6681  -0.6317
    -0.6016  -0.5946  -0.5467  -0.4528  -0.3797  -0.1936  -0.1602  -0.1189
    -0.0036   0.0221   0.0572   0.1552   0.1620   0.1919   0.2705   0.2882
     0.3155   0.3346   0.5886   0.5921   0.6430   0.6718   0.7319   0.7782
     0.8026   0.8035   0.9240   0.9706   0.9831   1.1553   1.1639   1.1984
     1.3017   1.3262   1.3632   1.3875   1.4795   1.5212   1.5257   1.7954
     1.8681   1.8790   1.8972   1.8999   1.9100   1.9751   1.9820   2.0315
     2.0616   2.0733   2.1943   2.4010   2.4063   2.4083   2.4468   2.4514
     2.6431   2.6539   2.6775   2.7098   2.7215   2.7961   2.8416   3.1809
     3.2035   3.2178   3.2816   3.3295   3.3641   3.3778   3.5442   3.5475
     3.5699   3.6169   3.6259   3.7992   3.8063   3.8938   3.9029   4.0003
     4.0225   4.1242   4.1803   4.2439   4.2473   4.2704   4.3018   4.3973
     4.4720   4.4973   4.5210   4.5648   4.6630   4.8052   4.8115   4.8410
     4.8498   4.8523   4.8939   4.9669   4.9889   5.0740   5.0907   5.1944
     5.2014   5.2118   5.2380   5.2618   5.3013   5.4403   5.4932   5.5255
     5.5326   5.5330   5.5443   5.6498   5.6731   5.7195   5.7317   5.8367
     5.8522   5.8738   5.8957   5.9063   5.9063   5.9800   5.9912   6.0158
     6.0171   6.0265   6.0328   6.0422   6.0869   6.1381   6.1418   6.1477
     6.1656   6.2221   6.2292   6.3071   6.4015   6.4092   6.4469   6.4473
     6.4738   6.5148   6.5237   6.5725   6.5878   6.6322   6.6406   6.6539
     6.6608   6.6907   6.7353   6.7481   6.7688   6.8237   6.8288   6.9306
     6.9365   6.9722   6.9727   6.9987   7.0274   7.0635   7.1003   7.1088
     7.1284   7.1636   7.1906   7.1919   7.1998   7.2023   7.2795   7.2909
     7.3065   7.3547   7.3591   7.4025   7.4171   7.4339   7.4641   7.5086
     7.5608   7.5675   7.6062   7.6175   7.6582   7.6582   7.6666   7.6693
     7.6931   7.6938   7.7179   7.7228   7.7376   7.7420   7.7925   7.8309
     7.8580   7.8671   7.8741   7.9408   7.9894   7.9901   8.0016   8.0253

          k =-0.2500 0.5057 0.0000 ( 95386 PWs)   bands (ev):

    -8.0049  -7.7855  -7.3695  -7.1565  -6.9589  -6.8866  -6.8076  -6.6747
    -6.6109  -6.2901  -6.2195  -6.1891  -6.1051  -6.0374  -5.9303  -5.9280
    -5.8888  -5.8392  -5.8311  -5.8250  -5.7940  -5.7361  -5.7241  -5.6815
    -5.6675  -5.6496  -5.6455  -5.6402  -5.5499  -5.5385  -5.5310  -5.5228
    -5.5165  -5.5073  -5.4893  -5.4813  -5.4630  -5.4596  -5.4283  -5.3752
    -5.3691  -5.3538  -5.3516  -5.3172  -5.3100  -5.2939  -5.2913  -5.2338
    -5.2328  -5.2327  -5.2283  -5.2184  -5.1998  -5.1787  -5.1555  -5.1448
    -5.1299  -5.1245  -5.1157  -5.1142  -5.1106  -5.1093  -5.0881  -5.0676
    -5.0648  -5.0571  -5.0560  -5.0489  -5.0408  -5.0377  -5.0305  -4.9878
    -4.9821  -4.9670  -4.9638  -4.9482  -4.9343  -4.9324  -4.9289  -4.9269
    -4.9177  -4.9160  -4.9070  -4.9040  -4.8858  -4.8854  -4.8818  -4.8719
    -4.8719  -4.8622  -4.8596  -4.8488  -4.8281  -4.8270  -4.8248  -4.8221
    -4.7419  -4.7393  -4.7377  -4.7368  -4.7329  -4.7256  -4.7212  -4.7209
    -4.7203  -4.7120  -4.6995  -4.6848  -4.6743  -4.6166  -4.6001  -4.5971
    -4.5934  -4.5851  -4.5625  -4.5611  -4.5574  -4.5268  -4.4706  -4.4695
    -4.4509  -4.4138  -4.3980  -4.3952  -4.3936  -4.3932  -4.3917  -4.3854
    -4.3554  -4.3457  -4.3451  -4.3371  -4.3256  -4.3230  -4.3202  -4.3036
    -4.3021  -4.2739  -4.2645  -4.2574  -4.2477  -4.2452  -4.2294  -4.2106
    -4.1938  -4.1679  -4.1562  -4.1551  -4.1546  -4.1531  -4.1483  -4.1395
    -4.1373  -4.1045  -4.0972  -4.0835  -4.0775  -4.0763  -4.0699  -4.0544
    -4.0506  -4.0353  -4.0307  -4.0240  -4.0214  -4.0172  -4.0085  -3.9939
    -3.9868  -3.9707  -3.9586  -3.9275  -3.9140  -3.8986  -3.8931  -3.8896
    -3.8710  -3.8707  -3.8611  -3.8374  -3.8366  -3.8330  -3.8165  -3.8084
    -3.7860  -3.7801  -3.7392  -3.7358  -3.7265  -3.7241  -3.7149  -3.7102
    -3.7009  -3.6853  -3.6807  -3.6712  -3.6589  -3.6405  -3.6192  -3.6192
    -3.6173  -3.6162  -3.6056  -3.6018  -3.5991  -3.5952  -3.5917  -3.5797
    -3.5698  -3.5670  -3.5645  -3.5595  -3.5575  -3.5509  -3.5459  -3.5448
    -3.5435  -3.5342  -3.5236  -3.4923  -3.4823  -3.4563  -3.4540  -3.4429
    -3.4425  -3.4405  -3.4392  -3.4261  -3.4214  -3.4127  -3.4051  -3.3970
    -3.3879  -3.3797  -3.3740  -3.3720  -3.3704  -3.3695  -3.3643  -3.3563
    -3.3525  -3.3374  -3.3356  -3.3269  -3.3261  -3.3244  -3.3200  -3.3171
    -3.3134  -3.3130  -3.3091  -3.3086  -3.2997  -3.2969  -3.2919  -3.2861
    -3.2814  -3.2795  -3.2591  -3.2497  -3.2468  -3.2438  -3.2381  -3.2288
    -3.2197  -3.2189  -3.2142  -3.2102  -3.2022  -3.1998  -3.1890  -3.1805
    -3.1790  -3.1732  -3.1721  -3.1684  -3.1668  -3.1592  -3.1581  -3.1459
    -3.1457  -3.1216  -3.1212  -3.1106  -3.0983  -3.0906  -3.0844  -3.0580
    -3.0413  -3.0400  -3.0345  -3.0333  -3.0262  -3.0239  -3.0231  -3.0181
    -3.0173  -3.0163  -3.0155  -3.0091  -3.0024  -3.0015  -2.9894  -2.9849
    -2.9818  -2.9807  -2.9800  -2.9750  -2.9750  -2.9711  -2.9686  -2.9509
    -2.9151  -2.9131  -2.8901  -2.8758  -2.8742  -2.8624  -2.8597  -2.8493
    -2.8476  -2.8280  -2.8220  -2.8205  -2.7997  -2.7962  -2.7956  -2.7831
    -2.7797  -2.7754  -2.7674  -2.7641  -2.7502  -2.7492  -2.7468  -2.7421
    -2.7233  -2.7225  -2.7207  -2.7180  -2.6628  -2.6543  -2.6462  -2.6367
    -2.6296  -2.6261  -2.6215  -2.5956  -2.5801  -2.5698  -2.5674  -2.5669
    -2.5635  -2.5590  -2.5531  -2.5408  -2.5281  -2.5252  -2.5195  -2.5161
    -2.5090  -2.5072  -2.5012  -2.4929  -2.4899  -2.4863  -2.4804  -2.4793
    -2.4732  -2.4724  -2.4665  -2.4657  -2.4598  -2.4491  -2.4353  -2.4347
    -2.4065  -2.4001  -2.3983  -2.3743  -2.3703  -2.3633  -2.3559  -2.3558
    -2.3487  -2.3453  -2.3356  -2.3324  -2.3153  -2.3004  -2.2928  -2.2719
    -2.2685  -2.2667  -2.2637  -2.2488  -2.2433  -2.2336  -2.2317  -2.2151
    -2.2126  -2.2055  -2.2053  -2.1979  -2.1971  -2.1783  -2.1449  -2.1361
    -2.1304  -2.1058  -2.1024  -2.0848  -2.0675  -2.0485  -2.0475  -2.0442
    -2.0374  -2.0319  -2.0023  -1.9983  -1.9948  -1.9641  -1.9607  -1.9573
    -1.9561  -1.9520  -1.9481  -1.9453  -1.9393  -1.9388  -1.9370  -1.9309
    -1.9299  -1.9275  -1.9171  -1.9122  -1.9078  -1.9020  -1.8647  -1.8557
    -1.8550  -1.8386  -1.8310  -1.8273  -1.8232  -1.8171  -1.8161  -1.8136
    -1.8115  -1.8014  -1.8002  -1.7990  -1.7934  -1.7665  -1.7596  -1.7586
    -1.7575  -1.7483  -1.7432  -1.7425  -1.7366  -1.7365  -1.7266  -1.7239
    -1.7063  -1.7047  -1.6989  -1.6979  -1.6881  -1.6744  -1.6702  -1.6658
    -1.6635  -1.6587  -1.6508  -1.6288  -1.6131  -1.6038  -1.5994  -1.5975
    -1.5792  -1.5760  -1.5755  -1.5740  -1.5602  -1.5448  -1.5044  -1.4992
    -1.4927  -1.4881  -1.4800  -1.4791  -1.4706  -1.4673  -1.4599  -1.4581
    -1.4511  -1.4444  -1.4336  -1.4325  -1.4262  -1.4133  -1.4127  -1.4074
    -1.3997  -1.3817  -1.3718  -1.3685  -1.3630  -1.3580  -1.3454  -1.3396
    -1.3278  -1.3256  -1.3219  -1.3074  -1.3026  -1.2977  -1.2933  -1.2873
    -1.2872  -1.2779  -1.2766  -1.2671  -1.2646  -1.2554  -1.2537  -1.2497
    -1.2417  -1.2397  -1.2280  -1.2276  -1.2200  -1.2193  -1.2192  -1.2189
    -1.2154  -1.2088  -1.2060  -1.1780  -1.1767  -1.1707  -1.1566  -1.1555
    -1.1450  -1.1402  -1.1379  -1.1336  -1.1300  -1.1251  -1.1245  -1.1218
    -1.1189  -1.1076  -1.1060  -1.0985  -1.0874  -1.0829  -1.0800  -1.0781
    -1.0772  -1.0758  -1.0725  -1.0629  -1.0579  -1.0550  -1.0537  -1.0509
    -1.0502  -1.0442  -1.0045  -0.9811  -0.9698  -0.9650  -0.9523  -0.9374
    -0.9358  -0.9293  -0.9246  -0.9208  -0.9161  -0.9078  -0.9003  -0.8820
    -0.8781  -0.8615  -0.8300  -0.8281  -0.8260  -0.7659  -0.6681  -0.6317
    -0.6016  -0.5946  -0.5467  -0.4528  -0.3797  -0.1936  -0.1602  -0.1189
    -0.0036   0.0221   0.0572   0.1552   0.1620   0.1919   0.2706   0.2882
     0.3155   0.3346   0.5886   0.5921   0.6430   0.6718   0.7319   0.7782
     0.8026   0.8034   0.9240   0.9706   0.9831   1.1553   1.1639   1.1984
     1.3017   1.3262   1.3632   1.3875   1.4795   1.5212   1.5257   1.7954
     1.8681   1.8790   1.8972   1.8999   1.9100   1.9751   1.9820   2.0315
     2.0616   2.0733   2.1943   2.4010   2.4063   2.4083   2.4468   2.4514
     2.6431   2.6539   2.6775   2.7098   2.7215   2.7961   2.8416   3.1809
     3.2035   3.2178   3.2816   3.3295   3.3641   3.3778   3.5442   3.5475
     3.5699   3.6169   3.6259   3.7992   3.8063   3.8938   3.9029   4.0003
     4.0225   4.1242   4.1803   4.2439   4.2473   4.2704   4.3018   4.3973
     4.4720   4.4973   4.5210   4.5648   4.6630   4.8052   4.8115   4.8410
     4.8498   4.8523   4.8939   4.9669   4.9889   5.0740   5.0906   5.1944
     5.2014   5.2118   5.2380   5.2618   5.3013   5.4403   5.4932   5.5255
     5.5326   5.5330   5.5443   5.6498   5.6731   5.7195   5.7317   5.8367
     5.8522   5.8738   5.8957   5.9063   5.9063   5.9800   5.9912   6.0158
     6.0171   6.0265   6.0328   6.0422   6.0869   6.1381   6.1418   6.1477
     6.1656   6.2221   6.2292   6.3071   6.4015   6.4092   6.4469   6.4473
     6.4738   6.5148   6.5237   6.5725   6.5878   6.6322   6.6406   6.6539
     6.6608   6.6907   6.7353   6.7481   6.7688   6.8237   6.8288   6.9306
     6.9365   6.9722   6.9727   6.9987   7.0274   7.0635   7.1003   7.1088
     7.1284   7.1636   7.1906   7.1919   7.1998   7.2023   7.2795   7.2909
     7.3065   7.3547   7.3591   7.4025   7.4171   7.4339   7.4641   7.5086
     7.5607   7.5675   7.6062   7.6175   7.6582   7.6582   7.6666   7.6693
     7.6931   7.6938   7.7179   7.7228   7.7376   7.7420   7.7925   7.8309
     7.8580   7.8671   7.8741   7.9408   7.9894   7.9901   8.0015   8.0252

     the Fermi energy is     0.7844 ev

!    total energy              =  -11427.09402178 Ry
     estimated scf accuracy    <       0.00000049 Ry
     smearing contrib. (-TS)   =       0.06310685 Ry
     internal energy E=F+TS    =  -11427.15712863 Ry

     The total energy is F=E-TS. E is the sum of the following terms:
     one-electron contribution = -129707.72048132 Ry
     hartree contribution      =   65677.90530831 Ry
     xc contribution           =   -5523.82447361 Ry
     ewald contribution        =   58126.48251799 Ry

     convergence has been achieved in  21 iterations
